p edge 120 1345 98
e 1 5
e 1 7
e 1 9
e 1 16
e 1 19
e 1 34
e 1 41
e 1 47
e 1 59
e 1 68
e 1 69
e 1 75
e 1 84
e 1 96
e 1 100
e 1 104
e 1 117
e 1 120
e 2 18
e 2 22
e 2 37
e 2 39
e 2 44
e 2 47
e 2 53
e 2 58
e 2 62
e 2 73
e 2 83
e 2 85
e 2 86
e 2 95
e 2 100
e 2 106
e 2 108
e 2 111
e 2 120
e 3 5
e 3 8
e 3 9
e 3 15
e 3 20
e 3 24
e 3 27
e 3 29
e 3 32
e 3 33
e 3 46
e 3 54
e 3 62
e 3 69
e 3 71
e 3 78
e 3 87
e 3 97
e 3 101
e 3 106
e 3 107
e 3 110
e 3 116
e 4 6
e 4 13
e 4 14
e 4 19
e 4 25
e 4 43
e 4 45
e 4 46
e 4 47
e 4 48
e 4 53
e 4 62
e 4 70
e 4 73
e 4 75
e 4 78
e 4 82
e 4 84
e 4 89
e 4 108
e 4 116
e 4 120
e 5 6
e 5 11
e 5 13
e 5 17
e 5 30
e 5 35
e 5 42
e 5 44
e 5 45
e 5 48
e 5 57
e 5 60
e 5 64
e 5 65
e 5 66
e 5 76
e 5 77
e 5 78
e 5 81
e 5 85
e 5 91
e 5 95
e 5 96
e 5 97
e 5 103
e 5 108
e 5 119
e 6 8
e 6 9
e 6 16
e 6 20
e 6 23
e 6 24
e 6 42
e 6 43
e 6 48
e 6 53
e 6 56
e 6 63
e 6 69
e 6 71
e 6 77
e 6 78
e 6 81
e 6 83
e 6 89
e 6 94
e 6 96
e 6 97
e 6 99
e 6 100
e 6 102
e 6 110
e 6 111
e 6 112
e 6 113
e 6 117
e 6 118
e 7 13
e 7 15
e 7 19
e 7 21
e 7 48
e 7 57
e 7 75
e 7 81
e 7 86
e 7 94
e 7 95
e 7 100
e 7 101
e 7 103
e 7 104
e 7 107
e 7 108
e 8 9
e 8 30
e 8 39
e 8 41
e 8 56
e 8 70
e 8 75
e 8 80
e 8 82
e 8 84
e 8 88
e 8 93
e 8 94
e 8 96
e 8 100
e 8 104
e 8 106
e 8 112
e 8 113
e 8 116
e 9 15
e 9 18
e 9 20
e 9 23
e 9 29
e 9 32
e 9 39
e 9 52
e 9 56
e 9 59
e 9 78
e 9 82
e 9 90
e 9 91
e 9 99
e 9 107
e 9 110
e 10 12
e 10 19
e 10 24
e 10 26
e 10 28
e 10 32
e 10 36
e 10 45
e 10 70
e 10 71
e 10 73
e 10 76
e 10 81
e 10 83
e 10 98
e 10 105
e 10 106
e 10 110
e 10 116
e 10 119
e 11 23
e 11 33
e 11 34
e 11 37
e 11 38
e 11 39
e 11 42
e 11 50
e 11 53
e 11 55
e 11 58
e 11 62
e 11 69
e 11 71
e 11 83
e 11 85
e 11 94
e 11 98
e 11 109
e 11 116
e 12 24
e 12 39
e 12 43
e 12 48
e 12 56
e 12 57
e 12 62
e 12 64
e 12 65
e 12 69
e 12 73
e 12 79
e 12 83
e 12 91
e 12 93
e 12 95
e 12 110
e 12 111
e 13 15
e 13 17
e 13 21
e 13 28
e 13 31
e 13 39
e 13 40
e 13 42
e 13 43
e 13 46
e 13 51
e 13 55
e 13 57
e 13 67
e 13 78
e 13 83
e 13 94
e 13 102
e 13 110
e 13 120
e 14 18
e 14 20
e 14 22
e 14 24
e 14 28
e 14 30
e 14 36
e 14 39
e 14 40
e 14 45
e 14 48
e 14 49
e 14 58
e 14 73
e 14 75
e 14 77
e 14 82
e 14 100
e 14 106
e 14 109
e 14 116
e 14 118
e 15 21
e 15 26
e 15 29
e 15 30
e 15 31
e 15 32
e 15 35
e 15 45
e 15 68
e 15 71
e 15 72
e 15 76
e 15 77
e 15 91
e 15 95
e 15 96
e 15 98
e 15 103
e 15 115
e 15 118
e 16 20
e 16 22
e 16 27
e 16 31
e 16 39
e 16 42
e 16 49
e 16 54
e 16 56
e 16 61
e 16 63
e 16 72
e 16 75
e 16 76
e 16 79
e 16 87
e 16 89
e 16 91
e 16 99
e 16 100
e 16 103
e 16 105
e 16 111
e 16 118
e 17 19
e 17 21
e 17 27
e 17 32
e 17 38
e 17 39
e 17 41
e 17 42
e 17 44
e 17 47
e 17 50
e 17 52
e 17 54
e 17 58
e 17 62
e 17 84
e 17 86
e 17 87
e 17 90
e 17 92
e 17 93
e 17 99
e 18 21
e 18 22
e 18 27
e 18 28
e 18 31
e 18 34
e 18 36
e 18 39
e 18 42
e 18 50
e 18 58
e 18 60
e 18 72
e 18 79
e 18 84
e 18 85
e 18 86
e 18 91
e 18 92
e 18 93
e 18 96
e 18 99
e 18 103
e 18 106
e 18 112
e 18 119
e 19 21
e 19 27
e 19 34
e 19 48
e 19 51
e 19 57
e 19 58
e 19 62
e 19 78
e 19 83
e 19 85
e 19 96
e 19 108
e 19 115
e 20 23
e 20 26
e 20 27
e 20 41
e 20 42
e 20 50
e 20 61
e 20 68
e 20 73
e 20 74
e 20 75
e 20 80
e 20 83
e 20 88
e 20 91
e 20 93
e 20 96
e 20 97
e 20 100
e 20 106
e 20 109
e 20 113
e 20 116
e 20 119
e 21 25
e 21 40
e 21 55
e 21 57
e 21 59
e 21 68
e 21 71
e 21 73
e 21 77
e 21 94
e 21 105
e 21 110
e 21 112
e 21 114
e 21 116
e 22 27
e 22 30
e 22 32
e 22 35
e 22 40
e 22 42
e 22 50
e 22 55
e 22 57
e 22 66
e 22 72
e 22 73
e 22 75
e 22 80
e 22 81
e 22 82
e 22 88
e 22 102
e 22 107
e 22 108
e 22 111
e 22 116
e 22 119
e 22 120
e 23 27
e 23 37
e 23 48
e 23 49
e 23 52
e 23 57
e 23 70
e 23 82
e 23 98
e 23 109
e 24 28
e 24 31
e 24 36
e 24 37
e 24 41
e 24 50
e 24 52
e 24 54
e 24 55
e 24 68
e 24 70
e 24 75
e 24 77
e 24 78
e 24 82
e 24 83
e 24 94
e 24 101
e 24 116
e 24 117
e 25 31
e 25 38
e 25 39
e 25 42
e 25 43
e 25 44
e 25 45
e 25 61
e 25 63
e 25 64
e 25 68
e 25 77
e 25 79
e 25 82
e 25 85
e 25 92
e 25 104
e 25 109
e 25 112
e 25 115
e 25 119
e 26 28
e 26 29
e 26 33
e 26 34
e 26 35
e 26 43
e 26 65
e 26 68
e 26 77
e 26 78
e 26 81
e 26 86
e 26 87
e 26 88
e 26 101
e 26 106
e 26 107
e 26 115
e 27 32
e 27 35
e 27 43
e 27 47
e 27 48
e 27 55
e 27 67
e 27 70
e 27 74
e 27 77
e 27 80
e 27 85
e 27 118
e 28 30
e 28 39
e 28 45
e 28 47
e 28 50
e 28 59
e 28 75
e 28 77
e 28 79
e 28 80
e 28 82
e 28 89
e 28 91
e 28 93
e 28 94
e 28 95
e 28 107
e 28 116
e 28 120
e 29 38
e 29 57
e 29 74
e 29 80
e 29 83
e 29 85
e 29 90
e 29 92
e 29 102
e 29 104
e 29 106
e 29 107
e 29 112
e 29 118
e 29 120
e 30 32
e 30 41
e 30 42
e 30 44
e 30 50
e 30 58
e 30 65
e 30 70
e 30 79
e 30 82
e 30 91
e 30 97
e 30 98
e 30 102
e 30 103
e 30 112
e 31 34
e 31 35
e 31 41
e 31 45
e 31 47
e 31 54
e 31 60
e 31 64
e 31 65
e 31 74
e 31 82
e 31 87
e 31 90
e 31 91
e 31 96
e 31 105
e 31 106
e 31 110
e 31 112
e 31 113
e 31 114
e 31 115
e 32 40
e 32 42
e 32 43
e 32 46
e 32 49
e 32 51
e 32 52
e 32 61
e 32 64
e 32 66
e 32 72
e 32 78
e 32 86
e 32 89
e 32 101
e 32 103
e 32 107
e 32 109
e 32 111
e 32 112
e 32 114
e 32 115
e 32 119
e 33 40
e 33 44
e 33 46
e 33 47
e 33 50
e 33 71
e 33 75
e 33 80
e 33 90
e 33 97
e 33 103
e 33 114
e 33 117
e 34 35
e 34 38
e 34 39
e 34 41
e 34 48
e 34 57
e 34 59
e 34 62
e 34 80
e 34 88
e 34 92
e 34 93
e 34 99
e 34 106
e 34 111
e 34 114
e 34 115
e 34 116
e 34 118
e 34 120
e 35 36
e 35 40
e 35 48
e 35 51
e 35 53
e 35 61
e 35 69
e 35 75
e 35 79
e 35 84
e 35 85
e 35 89
e 35 90
e 35 93
e 35 104
e 35 106
e 35 108
e 36 42
e 36 43
e 36 47
e 36 74
e 36 79
e 36 83
e 36 84
e 36 89
e 36 96
e 36 98
e 36 103
e 36 104
e 36 106
e 36 114
e 37 38
e 37 40
e 37 47
e 37 53
e 37 63
e 37 65
e 37 90
e 37 91
e 37 93
e 37 96
e 37 99
e 37 106
e 37 107
e 37 109
e 37 119
e 38 41
e 38 44
e 38 47
e 38 49
e 38 59
e 38 75
e 38 86
e 38 87
e 38 97
e 38 100
e 38 105
e 38 111
e 38 119
e 39 42
e 39 44
e 39 49
e 39 50
e 39 56
e 39 58
e 39 63
e 39 74
e 39 75
e 39 81
e 39 82
e 39 85
e 39 88
e 39 89
e 39 95
e 39 109
e 39 110
e 39 115
e 40 57
e 40 58
e 40 61
e 40 64
e 40 74
e 40 109
e 40 110
e 40 113
e 40 115
e 40 116
e 40 120
e 41 46
e 41 47
e 41 51
e 41 54
e 41 55
e 41 57
e 41 61
e 41 64
e 41 71
e 41 79
e 41 84
e 41 97
e 41 99
e 41 107
e 41 113
e 41 115
e 42 44
e 42 45
e 42 59
e 42 65
e 42 66
e 42 70
e 42 72
e 42 89
e 42 91
e 42 99
e 42 111
e 42 119
e 42 120
e 43 52
e 43 58
e 43 63
e 43 67
e 43 68
e 43 69
e 43 70
e 43 82
e 43 91
e 43 92
e 43 94
e 43 103
e 43 104
e 43 107
e 43 108
e 43 111
e 44 48
e 44 53
e 44 54
e 44 56
e 44 58
e 44 69
e 44 78
e 44 79
e 44 84
e 44 89
e 44 94
e 44 100
e 44 112
e 45 46
e 45 48
e 45 57
e 45 59
e 45 60
e 45 61
e 45 63
e 45 67
e 45 72
e 45 75
e 45 79
e 45 81
e 45 82
e 45 90
e 45 91
e 45 94
e 45 95
e 45 102
e 45 117
e 46 52
e 46 53
e 46 65
e 46 70
e 46 71
e 46 73
e 46 74
e 46 83
e 46 88
e 46 97
e 46 102
e 46 105
e 46 106
e 46 109
e 47 53
e 47 54
e 47 56
e 47 58
e 47 68
e 47 70
e 47 85
e 47 88
e 47 96
e 47 101
e 47 106
e 47 108
e 47 111
e 47 115
e 47 118
e 48 51
e 48 55
e 48 59
e 48 66
e 48 72
e 48 73
e 48 76
e 48 79
e 48 81
e 48 85
e 48 89
e 48 92
e 48 97
e 48 99
e 48 105
e 48 106
e 48 118
e 49 62
e 49 63
e 49 66
e 49 72
e 49 80
e 49 83
e 49 94
e 49 96
e 49 99
e 49 104
e 49 105
e 49 111
e 49 114
e 49 116
e 49 120
e 50 51
e 50 57
e 50 69
e 50 73
e 50 79
e 50 82
e 50 92
e 50 93
e 50 99
e 50 105
e 50 107
e 50 109
e 50 116
e 51 55
e 51 58
e 51 60
e 51 63
e 51 66
e 51 69
e 51 74
e 51 89
e 51 90
e 51 91
e 51 104
e 51 109
e 51 112
e 51 113
e 51 116
e 51 118
e 51 119
e 52 58
e 52 63
e 52 66
e 52 69
e 52 73
e 52 76
e 52 88
e 52 94
e 52 96
e 52 105
e 52 111
e 52 118
e 52 119
e 52 120
e 53 55
e 53 56
e 53 59
e 53 61
e 53 63
e 53 64
e 53 69
e 53 70
e 53 76
e 53 84
e 53 85
e 53 88
e 53 97
e 53 100
e 53 110
e 53 111
e 54 59
e 54 65
e 54 66
e 54 67
e 54 72
e 54 77
e 54 83
e 54 85
e 54 99
e 54 100
e 54 104
e 54 110
e 55 58
e 55 62
e 55 64
e 55 72
e 55 78
e 55 79
e 55 87
e 55 90
e 55 92
e 55 94
e 55 105
e 55 107
e 55 110
e 55 112
e 55 114
e 56 65
e 56 67
e 56 71
e 56 73
e 56 75
e 56 85
e 56 87
e 56 89
e 56 96
e 56 103
e 56 105
e 56 110
e 56 111
e 56 115
e 56 116
e 56 118
e 56 119
e 57 60
e 57 63
e 57 67
e 57 70
e 57 89
e 57 93
e 57 105
e 57 106
e 57 108
e 57 109
e 57 110
e 57 113
e 58 61
e 58 64
e 58 73
e 58 78
e 58 79
e 58 86
e 58 88
e 58 97
e 58 102
e 58 106
e 58 107
e 58 110
e 58 114
e 59 60
e 59 62
e 59 64
e 59 66
e 59 69
e 59 75
e 59 77
e 59 92
e 59 96
e 59 105
e 59 111
e 59 112
e 59 115
e 59 118
e 60 76
e 60 78
e 60 80
e 60 87
e 60 90
e 60 108
e 60 114
e 60 116
e 60 120
e 61 67
e 61 68
e 61 70
e 61 77
e 61 80
e 61 90
e 61 99
e 61 106
e 62 84
e 62 91
e 62 104
e 62 113
e 63 84
e 63 87
e 63 98
e 63 100
e 63 103
e 63 110
e 63 112
e 63 116
e 63 118
e 63 119
e 64 67
e 64 68
e 64 72
e 64 94
e 64 100
e 64 101
e 64 102
e 64 104
e 64 105
e 64 114
e 64 117
e 64 120
e 65 72
e 65 73
e 65 78
e 65 93
e 65 101
e 65 110
e 65 115
e 65 120
e 66 81
e 66 87
e 66 96
e 66 101
e 66 104
e 66 105
e 66 108
e 67 86
e 67 97
e 67 98
e 67 100
e 67 102
e 67 104
e 67 113
e 67 115
e 67 118
e 68 72
e 68 77
e 68 80
e 68 89
e 68 93
e 68 98
e 68 101
e 68 106
e 68 112
e 68 113
e 68 118
e 69 81
e 69 90
e 69 99
e 69 102
e 69 114
e 70 99
e 70 100
e 70 108
e 70 114
e 71 75
e 71 85
e 71 100
e 71 104
e 71 112
e 71 120
e 72 76
e 72 83
e 72 98
e 72 100
e 72 117
e 73 79
e 73 82
e 73 87
e 73 88
e 73 92
e 73 96
e 73 103
e 73 105
e 73 112
e 73 117
e 74 77
e 74 84
e 74 85
e 74 88
e 74 90
e 74 99
e 74 101
e 74 114
e 74 117
e 74 120
e 75 77
e 75 78
e 75 85
e 75 90
e 75 96
e 75 98
e 75 102
e 75 109
e 75 115
e 76 79
e 76 87
e 76 102
e 76 104
e 76 113
e 77 92
e 77 96
e 77 104
e 77 109
e 77 117
e 78 85
e 78 93
e 78 101
e 78 103
e 79 89
e 79 107
e 79 108
e 79 111
e 80 82
e 80 87
e 80 91
e 80 98
e 80 99
e 80 100
e 80 106
e 80 107
e 80 110
e 80 113
e 81 86
e 81 90
e 81 97
e 81 102
e 81 106
e 81 109
e 81 110
e 81 118
e 81 120
e 82 87
e 82 91
e 82 107
e 82 110
e 82 112
e 82 115
e 82 119
e 83 91
e 83 96
e 83 103
e 83 111
e 83 117
e 84 91
e 84 94
e 84 101
e 84 102
e 84 108
e 84 113
e 84 114
e 84 119
e 85 88
e 85 90
e 85 100
e 85 105
e 85 107
e 85 117
e 85 118
e 86 87
e 86 88
e 86 89
e 86 101
e 86 109
e 86 112
e 86 119
e 87 91
e 87 92
e 87 99
e 87 102
e 87 113
e 87 115
e 87 119
e 88 98
e 88 105
e 88 111
e 88 114
e 88 117
e 89 97
e 89 101
e 89 106
e 89 110
e 89 112
e 89 115
e 90 95
e 90 98
e 90 99
e 90 100
e 90 105
e 90 114
e 90 120
e 91 96
e 91 116
e 92 99
e 92 109
e 92 119
e 93 99
e 93 105
e 93 109
e 93 112
e 93 113
e 93 118
e 94 102
e 94 111
e 94 113
e 94 120
e 95 96
e 95 100
e 95 102
e 95 112
e 95 114
e 95 117
e 96 97
e 96 107
e 97 107
e 97 117
e 98 99
e 98 100
e 98 101
e 98 105
e 98 107
e 98 109
e 98 110
e 98 114
e 98 118
e 99 100
e 99 104
e 99 108
e 99 118
e 100 103
e 100 114
e 100 117
e 101 105
e 101 112
e 101 114
e 101 115
e 102 104
e 102 110
e 102 114
e 102 118
e 102 119
e 103 111
e 103 115
e 103 118
e 104 105
e 104 108
e 104 112
e 104 116
e 104 117
e 104 120
e 105 106
e 105 116
e 105 120
e 106 114
e 107 111
e 107 119
e 107 120
e 108 110
e 109 112
e 109 120
e 111 113
e 111 116
e 111 119
e 112 114
e 112 119
e 113 119
e 114 118
e 115 116
e 116 119
e 117 118
e 119 120
